RT is False
Default write of storage_offers_DA.csv just to have a file (but constraint should be inactive)
Reading model...
...model read.
creating competitive generators file...
...competitive generators recorded.
Loading data...
.. day-ahead data read.
Compiling instance...
...instance created.
Creating Offer Mitigation (model will solve as dispatch if TRUE)...
NOTE: storage offers will not be mitigated
...storage offer mitigation file created
Converting model to MPEC...
...converted
NOTE: initial MIP solve with only storage competitive to get feasible solution
Solving...

Welcome to IBM(R) ILOG(R) CPLEX(R) Interactive Optimizer 12.9.0.0
  with Simplex, Mixed Integer & Barrier Optimizers
5725-A06 5725-A29 5724-Y48 5724-Y49 5724-Y54 5724-Y55 5655-Y21
Copyright IBM Corp. 1988, 2019.  All Rights Reserved.

Type 'help' for a list of available commands.
Type 'help' followed by a command name for more
information on commands.

CPLEX> Logfile 'cplex.log' closed.
Logfile 'C:\Users\Luke\Desktop\test919\logs\tmpzex3xp93.cplex.log' open.
CPLEX> New value for parallel optimization mode: -1
CPLEX> New value for mixed integer optimality gap tolerance: 0.01
CPLEX> New value for integrality tolerance: 1e-09
CPLEX> New value for feasibility tolerance: 0.01
CPLEX> New value for deterministic time limit in ticks: 75000
CPLEX> Problem 'C:\Users\Luke\Desktop\test919\logs\tmpkot5i7zh.pyomo.lp' read.
Read time = 0.19 sec. (14.73 ticks)
CPLEX> Problem name         : C:\Users\Luke\Desktop\test919\logs\tmpkot5i7zh.pyomo.lp
Objective sense      : Maximize
Variables            :   53805  [Nneg: 1,  Box: 22000,  Free: 4464,
                                 Binary: 27340]
Objective nonzeros   :    9029
Linear constraints   :  123205  [Less: 41346,  Greater: 59096,  Equal: 22763]
  Nonzeros           :  291850
  RHS nonzeros       :   67540

Variables            : Min LB: -5000.000        Max UB: 1000000.       
Objective nonzeros   : Min   : 0.1000000        Max   : 722.0000       
Linear constraints   :
  Nonzeros           : Min   : 0.1000000        Max   : 1000000.       
  RHS nonzeros       : Min   : 0.1000000        Max   : 1000000.       
CPLEX> CPXPARAM_Parallel                                -1
CPXPARAM_Simplex_Tolerances_Feasibility          0.01
CPXPARAM_DetTimeLimit                            75000
CPXPARAM_MIP_Tolerances_MIPGap                   0.01
CPXPARAM_MIP_Tolerances_Integrality              1.0000000000000001e-09
Tried aggregator 3 times.
MIP Presolve eliminated 88473 rows and 18812 columns.
MIP Presolve added 3443 rows and 0 columns.
MIP Presolve modified 24932 coefficients.
Aggregator did 12988 substitutions.
Reduced MIP has 25187 rows, 21488 columns, and 71809 nonzeros.
Reduced MIP has 8486 binaries, 0 generals, 0 SOSs, and 0 indicators.
Presolve time = 0.23 sec. (176.45 ticks)
Probing fixed 378 vars, tightened 2815 bounds.
Probing time = 1.44 sec. (887.52 ticks)
Tried aggregator 2 times.
MIP Presolve eliminated 856 rows and 761 columns.
MIP Presolve modified 2241 coefficients.
Aggregator did 41 substitutions.
Reduced MIP has 24290 rows, 20686 columns, and 69208 nonzeros.
Reduced MIP has 8106 binaries, 0 generals, 0 SOSs, and 0 indicators.
Presolve time = 0.09 sec. (73.67 ticks)
Probing time = 0.03 sec. (16.63 ticks)
Clique table members: 6445.
MIP emphasis: balance optimality and feasibility.
MIP search method: dynamic search.
Parallel mode: opportunistic, using up to 24 threads.
Root relaxation solution time = 0.55 sec. (701.90 ticks)

        Nodes                                         Cuts/
   Node  Left     Objective  IInf  Best Integer    Best Bound    ItCnt     Gap

      0     0       13.9173   723                     13.9173     7712         
*     0+    0                           13.9173       13.9173             0.00%
      0     0        cutoff             13.9173       13.9173     7712    0.00%
Elapsed time = 4.17 sec. (3146.64 ticks, tree = 0.01 MB, solutions = 1)

Root node processing (before b&c):
  Real time             =    4.19 sec. (3148.47 ticks)
Parallel b&c, 24 threads:
  Real time             =    0.00 sec. (0.00 ticks)
  Sync time (average)   =    0.00 sec.
  Wait time (average)   =    0.00 sec.
                          ------------
Total (root+branch&cut) =    4.19 sec. (3148.47 ticks)

Solution pool: 1 solution saved.

MIP - Integer optimal solution:  Objective =  1.3917311380e+01
Solution time =    4.20 sec.  Iterations = 7712  Nodes = 0
Deterministic time = 3148.62 ticks  (749.14 ticks/sec)

CPLEX> Incumbent solution written to file 'C:\Users\Luke\Desktop\test919\logs\tmplbf9kgkx.cplex.sol'.
CPLEX> NOTE: no warmstart specified for MIP iteration, default behavior is true
NOTE: resolving with all competitive generators using storage-only solution to warmstart
Solving...

Welcome to IBM(R) ILOG(R) CPLEX(R) Interactive Optimizer 12.9.0.0
  with Simplex, Mixed Integer & Barrier Optimizers
5725-A06 5725-A29 5724-Y48 5724-Y49 5724-Y54 5724-Y55 5655-Y21
Copyright IBM Corp. 1988, 2019.  All Rights Reserved.

Type 'help' for a list of available commands.
Type 'help' followed by a command name for more
information on commands.

CPLEX> Logfile 'cplex.log' closed.
Logfile 'C:\Users\Luke\Desktop\test919\logs\tmp5wsx1053.cplex.log' open.
CPLEX> New value for parallel optimization mode: -1
CPLEX> New value for mixed integer optimality gap tolerance: 0.01
CPLEX> New value for integrality tolerance: 1e-09
CPLEX> New value for feasibility tolerance: 0.01
CPLEX> New value for deterministic time limit in ticks: 75000
CPLEX> Problem 'C:\Users\Luke\Desktop\test919\logs\tmps_ihkz_u.pyomo.lp' read.
Read time = 0.20 sec. (14.75 ticks)
CPLEX> MIP start file 'C:\Users\Luke\Desktop\test919\logs\tmpwb1clmoz.cplex.mst' read.
CPLEX> Problem name         : C:\Users\Luke\Desktop\test919\logs\tmps_ihkz_u.pyomo.lp
Objective sense      : Maximize
Variables            :   54525  [Nneg: 1,  Box: 22720,  Free: 4464,
                                 Binary: 27340]
Objective nonzeros   :    9749
Linear constraints   :  123205  [Less: 41346,  Greater: 59096,  Equal: 22763]
  Nonzeros           :  291850
  RHS nonzeros       :   67540

Variables            : Min LB: -5000.000        Max UB: 1000000.       
Objective nonzeros   : Min   : 0.1000000        Max   : 722.0000       
Linear constraints   :
  Nonzeros           : Min   : 0.1000000        Max   : 1000000.       
  RHS nonzeros       : Min   : 0.1000000        Max   : 1000000.       
CPLEX> CPXPARAM_Parallel                                -1
CPXPARAM_Simplex_Tolerances_Feasibility          0.01
CPXPARAM_DetTimeLimit                            75000
CPXPARAM_MIP_Tolerances_MIPGap                   0.01
CPXPARAM_MIP_Tolerances_Integrality              1.0000000000000001e-09
Warning:  No solution found from 1 MIP starts.
Retaining values of one MIP start for possible repair.
Tried aggregator 3 times.
MIP Presolve eliminated 88473 rows and 19532 columns.
MIP Presolve added 3443 rows and 0 columns.
MIP Presolve modified 24932 coefficients.
Aggregator did 12988 substitutions.
Reduced MIP has 25187 rows, 21488 columns, and 71809 nonzeros.
Reduced MIP has 8486 binaries, 0 generals, 0 SOSs, and 0 indicators.
Presolve time = 0.23 sec. (176.82 ticks)
Probing fixed 378 vars, tightened 2815 bounds.
Probing time = 1.44 sec. (887.52 ticks)
Tried aggregator 2 times.
MIP Presolve eliminated 856 rows and 761 columns.
MIP Presolve modified 2241 coefficients.
Aggregator did 41 substitutions.
Reduced MIP has 24290 rows, 20686 columns, and 69208 nonzeros.
Reduced MIP has 8106 binaries, 0 generals, 0 SOSs, and 0 indicators.
Presolve time = 0.09 sec. (73.67 ticks)
Probing time = 0.03 sec. (16.63 ticks)
Clique table members: 6445.
MIP emphasis: balance optimality and feasibility.
MIP search method: dynamic search.
Parallel mode: opportunistic, using up to 24 threads.
Root relaxation solution time = 0.55 sec. (701.90 ticks)

        Nodes                                         Cuts/
   Node  Left     Objective  IInf  Best Integer    Best Bound    ItCnt     Gap

      0     0       13.9173   723                     13.9173     7712         
*     0+    0                           13.9173       13.9173             0.00%
      0     0        cutoff             13.9173       13.9173     7712    0.00%
Elapsed time = 4.25 sec. (3174.68 ticks, tree = 0.01 MB, solutions = 1)

Root node processing (before b&c):
  Real time             =    4.27 sec. (3176.53 ticks)
Parallel b&c, 24 threads:
  Real time             =    0.00 sec. (0.00 ticks)
  Sync time (average)   =    0.00 sec.
  Wait time (average)   =    0.00 sec.
                          ------------
Total (root+branch&cut) =    4.27 sec. (3176.53 ticks)

Solution pool: 1 solution saved.

MIP - Integer optimal solution:  Objective =  1.3917311380e+01
Solution time =    4.27 sec.  Iterations = 7712  Nodes = 0
Deterministic time = 3176.69 ticks  (744.65 ticks/sec)

CPLEX> Incumbent solution written to file 'C:\Users\Luke\Desktop\test919\logs\tmpyaxc8v15.cplex.sol'.
CPLEX> Exporting results... 
